# Objective value = 30
Q2_0_0 1
Q3_0_0 0
Q2_0_1 0
Q3_0_1 0
Q2_0_2 0
Q3_0_2 0
Q2_0_3 0
Q3_0_3 0
Q2_0_4 1
Q3_0_4 0
Q2_0_5 0
Q3_0_5 0
Q2_0_6 0
Q3_0_6 0
Q2_0_7 0
Q3_0_7 0
Q2_1_0 0
Q3_1_0 0
Q2_1_1 0
Q3_1_1 0
Q2_1_2 1
Q3_1_2 0
Q2_1_3 1
Q3_1_3 0
Q2_1_4 0
Q3_1_4 0
Q2_1_5 0
Q3_1_5 0
Q2_1_6 0
Q3_1_6 0
Q2_1_7 0
Q3_1_7 0
Q2_2_0 0
Q3_2_0 0
Q2_2_1 0
Q3_2_1 0
Q2_2_2 0
Q3_2_2 0
Q2_2_3 0
Q3_2_3 0
Q2_2_4 1
Q3_2_4 0
Q2_2_5 0
Q3_2_5 0
Q2_2_6 0
Q3_2_6 1
Q2_2_7 1
Q3_2_7 0
Q2_3_0 0
Q3_3_0 0
Q2_3_1 0
Q3_3_1 0
Q2_3_2 0
Q3_3_2 0
Q2_3_3 0
Q3_3_3 0
Q2_3_4 0
Q3_3_4 0
Q2_3_5 0
Q3_3_5 0
Q2_3_6 0
Q3_3_6 0
Q2_3_7 0
Q3_3_7 0
Q2_4_0 0
Q3_4_0 0
Q2_4_1 0
Q3_4_1 0
Q2_4_2 0
Q3_4_2 0
Q2_4_3 0
Q3_4_3 0
Q2_4_4 1
Q3_4_4 0
Q2_4_5 0
Q3_4_5 0
Q2_4_6 0
Q3_4_6 1
Q2_4_7 1
Q3_4_7 0
Q2_5_0 0
Q3_5_0 0
Q2_5_1 0
Q3_5_1 0
Q2_5_2 1
Q3_5_2 0
Q2_5_3 1
Q3_5_3 0
Q2_5_4 0
Q3_5_4 0
Q2_5_5 0
Q3_5_5 0
Q2_5_6 0
Q3_5_6 0
Q2_5_7 0
Q3_5_7 0
Q2_6_0 1
Q3_6_0 0
Q2_6_1 0
Q3_6_1 0
Q2_6_2 0
Q3_6_2 0
Q2_6_3 0
Q3_6_3 0
Q2_6_4 1
Q3_6_4 0
Q2_6_5 0
Q3_6_5 0
Q2_6_6 0
Q3_6_6 0
Q2_6_7 0
Q3_6_7 0
L0 1
L1 1
L2 0
L3 0
L4 0
L5 1
L6 0
L7 0
L8 1
L9 0
L10 0
L11 0
L12 1
L13 0
L14 0
L15 0
L16 0
L17 0
L18 1
L19 1
L20 0
L21 0
L22 0
L23 1
L24 1
L25 1
L26 1
L27 1
L28 1
L29 1
L30 1
L31 0
X0_0 0
X0_1 1
X0_2 1
X0_3 0
X0_4 0
X0_5 0
X0_6 0
X0_7 0
X0_8 0
X0_9 0
X0_10 0
X0_11 0
X0_12 0
X0_13 0
X0_14 0
X0_15 0
X0_16 1
X0_17 1
X0_18 1
X0_19 0
X0_20 0
X0_21 0
X0_22 0
X0_23 0
X0_24 0
X0_25 0
X0_26 0
X0_27 0
X0_28 0
X0_29 0
X0_30 0
X0_31 0
Y0_0 0
Y0_1 1
Y0_2 0
Y0_3 0
Y0_4 0
Y0_5 0
Y0_6 0
Y0_7 0
Y0_8 0
Y0_9 0
Y0_10 0
Y0_11 0
Y0_12 0
Y0_13 0
Y0_14 0
Y0_15 0
Y0_16 0
Y0_17 0
Y0_18 1
Y0_19 0
Y0_20 0
Y0_21 0
Y0_22 0
Y0_23 0
Y0_24 0
Y0_25 0
Y0_26 0
Y0_27 0
Y0_28 0
Y0_29 0
Y0_30 0
Y0_31 0
X1_0 0
X1_1 0
Y1_0 0
Y1_1 0
Y1_2 0
X1_2 0
X1_3 0
Y1_3 0
X1_4 0
X1_5 0
Y1_4 0
Y1_5 0
Y1_6 0
X1_6 0
X1_7 0
Y1_7 0
X1_8 1
X1_9 1
Y1_8 0
Y1_9 0
Y1_10 1
X1_10 1
X1_11 0
Y1_11 0
X1_12 1
X1_13 1
Y1_12 0
Y1_13 0
Y1_14 1
X1_14 0
X1_15 0
Y1_15 0
X1_16 0
X1_17 0
Y1_16 0
Y1_17 0
Y1_18 0
X1_18 0
X1_19 0
Y1_19 0
X1_20 0
X1_21 0
Y1_20 0
Y1_21 0
Y1_22 0
X1_22 0
X1_23 0
Y1_23 0
X1_24 0
X1_25 0
Y1_24 0
Y1_25 0
Y1_26 0
X1_26 0
X1_27 0
Y1_27 0
X1_28 0
X1_29 0
Y1_28 0
Y1_29 0
Y1_30 0
X1_30 0
X1_31 0
Y1_31 0
X2_0 0
X2_1 0
Y2_0 0
Y2_1 0
Y2_2 0
X2_2 0
X2_3 0
Y2_3 0
X2_4 0
X2_5 0
Y2_4 0
Y2_5 0
Y2_6 0
X2_6 0
X2_7 0
Y2_7 0
X2_8 0
X2_9 0
Y2_8 0
Y2_9 0
Y2_10 0
X2_10 0
X2_11 0
Y2_11 0
X2_12 0
X2_13 0
Y2_12 0
Y2_13 0
Y2_14 0
X2_14 0
X2_15 0
Y2_15 0
X2_16 1
X2_17 1
Y2_16 0
Y2_17 0
Y2_18 1
X2_18 1
X2_19 0
Y2_19 0
X2_20 0
X2_21 0
Y2_20 0
Y2_21 0
Y2_22 0
X2_22 0
X2_23 0
Y2_23 0
X2_24 0
X2_25 0
Y2_24 0
Y2_25 0
Y2_26 1
X2_26 1
X2_27 0
Y2_27 1
X2_28 0
X2_29 1
Y2_28 0
Y2_29 1
Y2_30 0
X2_30 0
X2_31 0
Y2_31 1
X3_0 0
X3_1 0
Y3_0 0
Y3_1 0
Y3_2 0
X3_2 0
X3_3 0
Y3_3 0
X3_4 0
X3_5 0
Y3_4 0
Y3_5 0
Y3_6 0
X3_6 0
X3_7 0
Y3_7 0
X3_8 0
X3_9 0
Y3_8 0
Y3_9 0
Y3_10 0
X3_10 0
X3_11 0
Y3_11 0
X3_12 0
X3_13 0
Y3_12 0
Y3_13 0
Y3_14 0
X3_14 0
X3_15 0
Y3_15 0
X3_16 0
X3_17 0
Y3_16 0
Y3_17 0
Y3_18 0
X3_18 0
X3_19 0
Y3_19 0
X3_20 0
X3_21 0
Y3_20 0
Y3_21 0
Y3_22 0
X3_22 0
X3_23 0
Y3_23 0
X3_24 0
X3_25 0
Y3_24 0
Y3_25 0
Y3_26 0
X3_26 0
X3_27 0
Y3_27 0
X3_28 0
X3_29 0
Y3_28 0
Y3_29 0
Y3_30 0
X3_30 0
X3_31 0
Y3_31 0
X4_0 0
X4_1 0
Y4_0 0
Y4_1 0
Y4_2 0
X4_2 0
X4_3 0
Y4_3 0
X4_4 0
X4_5 0
Y4_4 0
Y4_5 0
Y4_6 0
X4_6 0
X4_7 0
Y4_7 0
X4_8 0
X4_9 0
Y4_8 0
Y4_9 0
Y4_10 0
X4_10 0
X4_11 0
Y4_11 0
X4_12 0
X4_13 0
Y4_12 0
Y4_13 0
Y4_14 0
X4_14 0
X4_15 0
Y4_15 0
X4_16 1
X4_17 1
Y4_16 0
Y4_17 0
Y4_18 1
X4_18 1
X4_19 0
Y4_19 0
X4_20 0
X4_21 0
Y4_20 0
Y4_21 0
Y4_22 0
X4_22 0
X4_23 0
Y4_23 0
X4_24 0
X4_25 0
Y4_24 0
Y4_25 0
Y4_26 1
X4_26 1
X4_27 0
Y4_27 1
X4_28 0
X4_29 1
Y4_28 0
Y4_29 1
Y4_30 0
X4_30 0
X4_31 0
Y4_31 1
X5_0 0
X5_1 0
Y5_0 0
Y5_1 0
Y5_2 0
X5_2 0
X5_3 0
Y5_3 0
X5_4 0
X5_5 0
Y5_4 0
Y5_5 0
Y5_6 0
X5_6 0
X5_7 0
Y5_7 0
X5_8 1
X5_9 1
Y5_8 0
Y5_9 0
Y5_10 1
X5_10 1
X5_11 0
Y5_11 0
X5_12 1
X5_13 1
Y5_12 0
Y5_13 0
Y5_14 1
X5_14 0
X5_15 0
Y5_15 0
X5_16 0
X5_17 0
Y5_16 0
Y5_17 0
Y5_18 0
X5_18 0
X5_19 0
Y5_19 0
X5_20 0
X5_21 0
Y5_20 0
Y5_21 0
Y5_22 0
X5_22 0
X5_23 0
Y5_23 0
X5_24 0
X5_25 0
Y5_24 0
Y5_25 0
Y5_26 0
X5_26 0
X5_27 0
Y5_27 0
X5_28 0
X5_29 0
Y5_28 0
Y5_29 0
Y5_30 0
X5_30 0
X5_31 0
Y5_31 0
X6_0 0
X6_1 1
Y6_0 0
Y6_1 1
Y6_2 0
X6_2 1
X6_3 0
Y6_3 0
X6_4 0
X6_5 0
Y6_4 0
Y6_5 0
Y6_6 0
X6_6 0
X6_7 0
Y6_7 0
X6_8 0
X6_9 0
Y6_8 0
Y6_9 0
Y6_10 0
X6_10 0
X6_11 0
Y6_11 0
X6_12 0
X6_13 0
Y6_12 0
Y6_13 0
Y6_14 0
X6_14 0
X6_15 0
Y6_15 0
X6_16 1
X6_17 1
Y6_16 0
Y6_17 0
Y6_18 1
X6_18 1
X6_19 0
Y6_19 0
X6_20 0
X6_21 0
Y6_20 0
Y6_21 0
Y6_22 0
X6_22 0
X6_23 0
Y6_23 0
X6_24 0
X6_25 0
Y6_24 0
Y6_25 0
Y6_26 0
X6_26 0
X6_27 0
Y6_27 0
X6_28 0
X6_29 0
Y6_28 0
Y6_29 0
Y6_30 0
X6_30 0
X6_31 0
Y6_31 0
Q0_0 1
Q0_1 0
Q0_2 0
Q0_3 0
Q0_4 1
Q0_5 0
Q0_6 0
Q0_7 0
Q1_0 0
Q1_1 0
Q1_2 1
Q1_3 1
Q1_4 0
Q1_5 0
Q1_6 0
Q1_7 0
Q2_0 0
Q2_1 0
Q2_2 0
Q2_3 0
Q2_4 1
Q2_5 0
Q2_6 1
Q2_7 1
Q3_0 0
Q3_1 0
Q3_2 0
Q3_3 0
Q3_4 0
Q3_5 0
Q3_6 0
Q3_7 0
Q4_0 0
Q4_1 0
Q4_2 0
Q4_3 0
Q4_4 1
Q4_5 0
Q4_6 1
Q4_7 1
Q5_0 0
Q5_1 0
Q5_2 1
Q5_3 1
Q5_4 0
Q5_5 0
Q5_6 0
Q5_7 0
Q6_0 1
Q6_1 0
Q6_2 0
Q6_3 0
Q6_4 1
Q6_5 0
Q6_6 0
Q6_7 0
D0_0_0 1
T0_0 1
D0_0_1 1
U0_0 1
D0_0_2 1
V0_0 1
D0_0_3 1
W0_0 1
D0_0_4 1
D0_1_0 1
T0_1 1
D0_1_1 1
U0_1 1
D0_1_2 1
V0_1 1
D0_1_3 1
W0_1 1
D0_1_4 1
D0_2_0 0
T0_2 0
D0_2_1 0
U0_2 0
D0_2_2 0
V0_2 0
D0_2_3 0
W0_2 0
D0_2_4 0
D0_3_0 0
T0_3 0
D0_3_1 0
U0_3 0
D0_3_2 0
V0_3 0
D0_3_3 0
W0_3 0
D0_3_4 0
D0_4_0 0
T0_4 0
D0_4_1 0
U0_4 0
D0_4_2 0
V0_4 0
D0_4_3 0
W0_4 0
D0_4_4 0
D0_5_0 0
T0_5 0
D0_5_1 0
U0_5 0
D0_5_2 0
V0_5 0
D0_5_3 1
W0_5 1
D0_5_4 1
D0_6_0 0
T0_6 0
D0_6_1 0
U0_6 0
D0_6_2 0
V0_6 0
D0_6_3 0
W0_6 0
D0_6_4 0
D0_7_0 0
T0_7 0
D0_7_1 0
U0_7 0
D0_7_2 0
V0_7 0
D0_7_3 0
W0_7 0
D0_7_4 0
D0_8_0 0
T0_8 0
D0_8_1 0
U0_8 0
D0_8_2 1
V0_8 1
D0_8_3 1
W0_8 1
D0_8_4 1
D0_9_0 0
T0_9 0
D0_9_1 0
U0_9 0
D0_9_2 0
V0_9 0
D0_9_3 0
W0_9 0
D0_9_4 0
D0_10_0 0
T0_10 0
D0_10_1 0
U0_10 0
D0_10_2 0
V0_10 0
D0_10_3 0
W0_10 0
D0_10_4 0
D0_11_0 0
T0_11 0
D0_11_1 0
U0_11 0
D0_11_2 0
V0_11 0
D0_11_3 0
W0_11 0
D0_11_4 0
D0_12_0 0
T0_12 0
D0_12_1 1
U0_12 1
D0_12_2 1
V0_12 1
D0_12_3 1
W0_12 1
D0_12_4 1
D0_13_0 0
T0_13 0
D0_13_1 0
U0_13 0
D0_13_2 0
V0_13 0
D0_13_3 0
W0_13 0
D0_13_4 0
D0_14_0 0
T0_14 0
D0_14_1 0
U0_14 0
D0_14_2 0
V0_14 0
D0_14_3 0
W0_14 0
D0_14_4 0
D0_15_0 0
T0_15 0
D0_15_1 0
U0_15 0
D0_15_2 0
V0_15 0
D0_15_3 0
W0_15 0
D0_15_4 0
D0_16_0 0
T0_16 0
D0_16_1 0
U0_16 0
D0_16_2 0
V0_16 0
D0_16_3 0
W0_16 0
D0_16_4 0
D0_17_0 0
T0_17 0
D0_17_1 0
U0_17 0
D0_17_2 0
V0_17 0
D0_17_3 0
W0_17 0
D0_17_4 0
D0_18_0 1
T0_18 1
D0_18_1 1
U0_18 1
D0_18_2 1
V0_18 1
D0_18_3 1
W0_18 1
D0_18_4 1
D0_19_0 0
T0_19 0
D0_19_1 0
U0_19 0
D0_19_2 0
V0_19 0
D0_19_3 1
W0_19 1
D0_19_4 1
D0_20_0 0
T0_20 0
D0_20_1 0
U0_20 0
D0_20_2 0
V0_20 0
D0_20_3 0
W0_20 0
D0_20_4 0
D0_21_0 0
T0_21 0
D0_21_1 0
U0_21 0
D0_21_2 0
V0_21 0
D0_21_3 0
W0_21 0
D0_21_4 0
D0_22_0 0
T0_22 0
D0_22_1 0
U0_22 0
D0_22_2 0
V0_22 0
D0_22_3 0
W0_22 0
D0_22_4 0
D0_23_0 0
T0_23 0
D0_23_1 0
U0_23 0
D0_23_2 1
V0_23 1
D0_23_3 1
W0_23 1
D0_23_4 1
D0_24_0 0
T0_24 0
D0_24_1 0
U0_24 0
D0_24_2 0
V0_24 0
D0_24_3 0
W0_24 0
D0_24_4 1
D0_25_0 0
T0_25 0
D0_25_1 0
U0_25 0
D0_25_2 0
V0_25 0
D0_25_3 0
W0_25 0
D0_25_4 1
D0_26_0 0
T0_26 0
D0_26_1 0
U0_26 0
D0_26_2 0
V0_26 0
D0_26_3 0
W0_26 0
D0_26_4 1
D0_27_0 0
T0_27 0
D0_27_1 1
U0_27 1
D0_27_2 1
V0_27 1
D0_27_3 1
W0_27 1
D0_27_4 1
D0_28_0 0
T0_28 0
D0_28_1 0
U0_28 0
D0_28_2 0
V0_28 0
D0_28_3 0
W0_28 0
D0_28_4 1
D0_29_0 0
T0_29 0
D0_29_1 0
U0_29 0
D0_29_2 0
V0_29 0
D0_29_3 0
W0_29 0
D0_29_4 1
D0_30_0 1
T0_30 1
D0_30_1 1
U0_30 1
D0_30_2 1
V0_30 1
D0_30_3 1
W0_30 1
D0_30_4 1
D0_31_0 0
T0_31 0
D0_31_1 0
U0_31 0
D0_31_2 0
V0_31 0
D0_31_3 0
W0_31 0
D0_31_4 0
D1_0_0 0
T1_0 0
D1_0_1 0
U1_0 0
D1_0_2 0
V1_0 0
D1_0_3 0
W1_0 0
D1_0_4 0
D1_1_0 0
T1_1 0
D1_1_1 0
U1_1 0
D1_1_2 1
V1_1 1
D1_1_3 1
W1_1 1
D1_1_4 1
D1_2_0 0
T1_2 0
D1_2_1 0
U1_2 0
D1_2_2 0
V1_2 0
D1_2_3 1
W1_2 1
D1_2_4 1
D1_3_0 0
T1_3 0
D1_3_1 0
U1_3 0
D1_3_2 0
V1_3 0
D1_3_3 0
W1_3 0
D1_3_4 0
D1_4_0 0
T1_4 0
D1_4_1 0
U1_4 0
D1_4_2 0
V1_4 0
D1_4_3 0
W1_4 0
D1_4_4 0
D1_5_0 0
T1_5 0
D1_5_1 1
U1_5 1
D1_5_2 1
V1_5 0
D1_5_3 0
W1_5 0
D1_5_4 0
D1_6_0 0
T1_6 0
D1_6_1 0
U1_6 0
D1_6_2 0
V1_6 0
D1_6_3 0
W1_6 0
D1_6_4 0
D1_7_0 0
T1_7 0
D1_7_1 0
U1_7 0
D1_7_2 0
V1_7 0
D1_7_3 0
W1_7 0
D1_7_4 0
D1_8_0 0
T1_8 0
D1_8_1 0
U1_8 0
D1_8_2 0
V1_8 0
D1_8_3 0
W1_8 0
D1_8_4 0
D1_9_0 1
T1_9 1
D1_9_1 1
U1_9 0
D1_9_2 0
V1_9 0
D1_9_3 0
W1_9 0
D1_9_4 0
D1_10_0 1
T1_10 1
D1_10_1 1
U1_10 1
D1_10_2 1
V1_10 1
D1_10_3 1
W1_10 1
D1_10_4 1
D1_11_0 0
T1_11 0
D1_11_1 0
U1_11 0
D1_11_2 0
V1_11 0
D1_11_3 0
W1_11 0
D1_11_4 0
D1_12_0 0
T1_12 0
D1_12_1 0
U1_12 0
D1_12_2 0
V1_12 0
D1_12_3 0
W1_12 0
D1_12_4 0
D1_13_0 1
T1_13 1
D1_13_1 1
U1_13 1
D1_13_2 1
V1_13 1
D1_13_3 1
W1_13 1
D1_13_4 1
D1_14_0 1
T1_14 1
D1_14_1 1
U1_14 1
D1_14_2 1
V1_14 1
D1_14_3 1
W1_14 0
D1_14_4 0
D1_15_0 0
T1_15 0
D1_15_1 0
U1_15 0
D1_15_2 0
V1_15 0
D1_15_3 0
W1_15 0
D1_15_4 0
D1_16_0 0
T1_16 0
D1_16_1 0
U1_16 0
D1_16_2 0
V1_16 0
D1_16_3 0
W1_16 0
D1_16_4 1
D1_17_0 0
T1_17 0
D1_17_1 0
U1_17 0
D1_17_2 0
V1_17 0
D1_17_3 0
W1_17 0
D1_17_4 1
D1_18_0 0
T1_18 0
D1_18_1 0
U1_18 0
D1_18_2 0
V1_18 0
D1_18_3 0
W1_18 0
D1_18_4 1
D1_19_0 0
T1_19 0
D1_19_1 0
U1_19 0
D1_19_2 0
V1_19 0
D1_19_3 0
W1_19 0
D1_19_4 0
D1_20_0 0
T1_20 0
D1_20_1 0
U1_20 0
D1_20_2 0
V1_20 0
D1_20_3 0
W1_20 0
D1_20_4 0
D1_21_0 0
T1_21 0
D1_21_1 0
U1_21 0
D1_21_2 0
V1_21 0
D1_21_3 0
W1_21 0
D1_21_4 0
D1_22_0 0
T1_22 0
D1_22_1 0
U1_22 0
D1_22_2 0
V1_22 0
D1_22_3 0
W1_22 0
D1_22_4 0
D1_23_0 0
T1_23 0
D1_23_1 0
U1_23 0
D1_23_2 0
V1_23 0
D1_23_3 0
W1_23 0
D1_23_4 0
D1_24_0 0
T1_24 0
D1_24_1 0
U1_24 0
D1_24_2 0
V1_24 0
D1_24_3 0
W1_24 0
D1_24_4 0
D1_25_0 0
T1_25 0
D1_25_1 0
U1_25 0
D1_25_2 0
V1_25 0
D1_25_3 0
W1_25 0
D1_25_4 0
D1_26_0 0
T1_26 0
D1_26_1 0
U1_26 0
D1_26_2 0
V1_26 0
D1_26_3 0
W1_26 0
D1_26_4 0
D1_27_0 0
T1_27 0
D1_27_1 0
U1_27 0
D1_27_2 0
V1_27 0
D1_27_3 0
W1_27 0
D1_27_4 0
D1_28_0 0
T1_28 0
D1_28_1 0
U1_28 0
D1_28_2 0
V1_28 0
D1_28_3 0
W1_28 0
D1_28_4 0
D1_29_0 0
T1_29 0
D1_29_1 0
U1_29 0
D1_29_2 0
V1_29 0
D1_29_3 0
W1_29 0
D1_29_4 0
D1_30_0 0
T1_30 0
D1_30_1 0
U1_30 0
D1_30_2 0
V1_30 0
D1_30_3 0
W1_30 0
D1_30_4 0
D1_31_0 0
T1_31 0
D1_31_1 0
U1_31 0
D1_31_2 0
V1_31 0
D1_31_3 0
W1_31 0
D1_31_4 0
D2_0_0 0
T2_0 0
D2_0_1 0
U2_0 0
D2_0_2 0
V2_0 0
D2_0_3 0
W2_0 0
D2_0_4 0
D2_1_0 0
T2_1 0
D2_1_1 0
U2_1 0
D2_1_2 0
V2_1 0
D2_1_3 0
W2_1 0
D2_1_4 0
D2_2_0 0
T2_2 0
D2_2_1 0
U2_2 0
D2_2_2 0
V2_2 0
D2_2_3 0
W2_2 0
D2_2_4 0
D2_3_0 0
T2_3 0
D2_3_1 0
U2_3 0
D2_3_2 0
V2_3 0
D2_3_3 0
W2_3 0
D2_3_4 0
D2_4_0 0
T2_4 0
D2_4_1 0
U2_4 0
D2_4_2 0
V2_4 0
D2_4_3 0
W2_4 0
D2_4_4 0
D2_5_0 0
T2_5 0
D2_5_1 0
U2_5 0
D2_5_2 0
V2_5 0
D2_5_3 0
W2_5 0
D2_5_4 0
D2_6_0 0
T2_6 0
D2_6_1 0
U2_6 0
D2_6_2 0
V2_6 0
D2_6_3 0
W2_6 0
D2_6_4 0
D2_7_0 0
T2_7 0
D2_7_1 0
U2_7 0
D2_7_2 0
V2_7 0
D2_7_3 0
W2_7 0
D2_7_4 0
D2_8_0 0
T2_8 0
D2_8_1 0
U2_8 0
D2_8_2 0
V2_8 0
D2_8_3 0
W2_8 0
D2_8_4 0
D2_9_0 0
T2_9 0
D2_9_1 0
U2_9 0
D2_9_2 0
V2_9 0
D2_9_3 0
W2_9 0
D2_9_4 0
D2_10_0 0
T2_10 0
D2_10_1 0
U2_10 0
D2_10_2 0
V2_10 0
D2_10_3 0
W2_10 0
D2_10_4 0
D2_11_0 0
T2_11 0
D2_11_1 0
U2_11 0
D2_11_2 0
V2_11 0
D2_11_3 0
W2_11 0
D2_11_4 0
D2_12_0 0
T2_12 0
D2_12_1 0
U2_12 0
D2_12_2 0
V2_12 0
D2_12_3 0
W2_12 0
D2_12_4 0
D2_13_0 0
T2_13 0
D2_13_1 0
U2_13 0
D2_13_2 0
V2_13 0
D2_13_3 0
W2_13 0
D2_13_4 0
D2_14_0 0
T2_14 0
D2_14_1 0
U2_14 0
D2_14_2 0
V2_14 0
D2_14_3 0
W2_14 0
D2_14_4 0
D2_15_0 0
T2_15 0
D2_15_1 0
U2_15 0
D2_15_2 0
V2_15 0
D2_15_3 0
W2_15 0
D2_15_4 0
D2_16_0 0
T2_16 0
D2_16_1 0
U2_16 0
D2_16_2 1
V2_16 1
D2_16_3 1
W2_16 0
D2_16_4 0
D2_17_0 0
T2_17 0
D2_17_1 0
U2_17 0
D2_17_2 0
V2_17 0
D2_17_3 0
W2_17 0
D2_17_4 0
D2_18_0 1
T2_18 1
D2_18_1 1
U2_18 1
D2_18_2 1
V2_18 0
D2_18_3 0
W2_18 0
D2_18_4 0
D2_19_0 0
T2_19 0
D2_19_1 1
U2_19 1
D2_19_2 1
V2_19 1
D2_19_3 1
W2_19 0
D2_19_4 0
D2_20_0 0
T2_20 0
D2_20_1 1
U2_20 1
D2_20_2 1
V2_20 0
D2_20_3 0
W2_20 0
D2_20_4 0
D2_21_0 0
T2_21 0
D2_21_1 0
U2_21 0
D2_21_2 0
V2_21 0
D2_21_3 0
W2_21 0
D2_21_4 0
D2_22_0 1
T2_22 1
D2_22_1 1
U2_22 0
D2_22_2 0
V2_22 0
D2_22_3 0
W2_22 0
D2_22_4 0
D2_23_0 1
T2_23 1
D2_23_1 1
U2_23 1
D2_23_2 1
V2_23 0
D2_23_3 0
W2_23 0
D2_23_4 0
D2_24_0 0
T2_24 0
D2_24_1 1
U2_24 1
D2_24_2 1
V2_24 1
D2_24_3 1
W2_24 1
D2_24_4 1
D2_25_0 1
T2_25 1
D2_25_1 1
U2_25 1
D2_25_2 1
V2_25 1
D2_25_3 1
W2_25 1
D2_25_4 1
D2_26_0 1
T2_26 1
D2_26_1 1
U2_26 1
D2_26_2 1
V2_26 1
D2_26_3 1
W2_26 1
D2_26_4 1
D2_27_0 1
T2_27 0
D2_27_1 1
U2_27 1
D2_27_2 1
V2_27 1
D2_27_3 1
W2_27 0
D2_27_4 0
D2_28_0 0
T2_28 0
D2_28_1 0
U2_28 0
D2_28_2 0
V2_28 0
D2_28_3 1
W2_28 1
D2_28_4 1
D2_29_0 1
T2_29 1
D2_29_1 1
U2_29 1
D2_29_2 1
V2_29 1
D2_29_3 1
W2_29 1
D2_29_4 1
D2_30_0 1
T2_30 1
D2_30_1 1
U2_30 1
D2_30_2 1
V2_30 1
D2_30_3 1
W2_30 0
D2_30_4 0
D2_31_0 1
T2_31 1
D2_31_1 1
U2_31 1
D2_31_2 1
V2_31 0
D2_31_3 0
W2_31 0
D2_31_4 0
D3_0_0 0
T3_0 0
D3_0_1 0
U3_0 0
D3_0_2 0
V3_0 0
D3_0_3 0
W3_0 0
D3_0_4 0
D3_1_0 0
T3_1 0
D3_1_1 0
U3_1 0
D3_1_2 0
V3_1 0
D3_1_3 0
W3_1 0
D3_1_4 0
D3_2_0 0
T3_2 0
D3_2_1 0
U3_2 0
D3_2_2 0
V3_2 0
D3_2_3 0
W3_2 0
D3_2_4 0
D3_3_0 0
T3_3 0
D3_3_1 0
U3_3 0
D3_3_2 0
V3_3 0
D3_3_3 0
W3_3 0
D3_3_4 0
D3_4_0 0
T3_4 0
D3_4_1 0
U3_4 0
D3_4_2 0
V3_4 0
D3_4_3 0
W3_4 0
D3_4_4 0
D3_5_0 0
T3_5 0
D3_5_1 0
U3_5 0
D3_5_2 0
V3_5 0
D3_5_3 0
W3_5 0
D3_5_4 0
D3_6_0 0
T3_6 0
D3_6_1 0
U3_6 0
D3_6_2 0
V3_6 0
D3_6_3 0
W3_6 0
D3_6_4 0
D3_7_0 0
T3_7 0
D3_7_1 0
U3_7 0
D3_7_2 0
V3_7 0
D3_7_3 0
W3_7 0
D3_7_4 0
D3_8_0 0
T3_8 0
D3_8_1 0
U3_8 0
D3_8_2 0
V3_8 0
D3_8_3 0
W3_8 0
D3_8_4 0
D3_9_0 0
T3_9 0
D3_9_1 0
U3_9 0
D3_9_2 0
V3_9 0
D3_9_3 0
W3_9 0
D3_9_4 0
D3_10_0 0
T3_10 0
D3_10_1 0
U3_10 0
D3_10_2 0
V3_10 0
D3_10_3 0
W3_10 0
D3_10_4 1
D3_11_0 0
T3_11 0
D3_11_1 0
U3_11 0
D3_11_2 0
V3_11 0
D3_11_3 0
W3_11 0
D3_11_4 0
D3_12_0 0
T3_12 0
D3_12_1 0
U3_12 0
D3_12_2 0
V3_12 0
D3_12_3 0
W3_12 0
D3_12_4 0
D3_13_0 0
T3_13 0
D3_13_1 0
U3_13 0
D3_13_2 0
V3_13 0
D3_13_3 0
W3_13 0
D3_13_4 1
D3_14_0 0
T3_14 0
D3_14_1 0
U3_14 0
D3_14_2 0
V3_14 0
D3_14_3 0
W3_14 0
D3_14_4 0
D3_15_0 0
T3_15 0
D3_15_1 0
U3_15 0
D3_15_2 0
V3_15 0
D3_15_3 0
W3_15 0
D3_15_4 0
D3_16_0 0
T3_16 0
D3_16_1 0
U3_16 0
D3_16_2 0
V3_16 0
D3_16_3 0
W3_16 0
D3_16_4 1
D3_17_0 0
T3_17 0
D3_17_1 0
U3_17 0
D3_17_2 0
V3_17 0
D3_17_3 0
W3_17 0
D3_17_4 1
D3_18_0 0
T3_18 0
D3_18_1 0
U3_18 0
D3_18_2 0
V3_18 0
D3_18_3 0
W3_18 0
D3_18_4 1
D3_19_0 0
T3_19 0
D3_19_1 0
U3_19 0
D3_19_2 0
V3_19 0
D3_19_3 0
W3_19 0
D3_19_4 0
D3_20_0 0
T3_20 0
D3_20_1 0
U3_20 0
D3_20_2 0
V3_20 0
D3_20_3 0
W3_20 0
D3_20_4 0
D3_21_0 0
T3_21 0
D3_21_1 0
U3_21 0
D3_21_2 0
V3_21 0
D3_21_3 0
W3_21 0
D3_21_4 0
D3_22_0 0
T3_22 0
D3_22_1 0
U3_22 0
D3_22_2 0
V3_22 0
D3_22_3 0
W3_22 0
D3_22_4 0
D3_23_0 0
T3_23 0
D3_23_1 0
U3_23 0
D3_23_2 0
V3_23 0
D3_23_3 0
W3_23 0
D3_23_4 0
D3_24_0 0
T3_24 0
D3_24_1 0
U3_24 0
D3_24_2 0
V3_24 0
D3_24_3 0
W3_24 0
D3_24_4 0
D3_25_0 0
T3_25 0
D3_25_1 0
U3_25 0
D3_25_2 0
V3_25 0
D3_25_3 0
W3_25 0
D3_25_4 0
D3_26_0 0
T3_26 0
D3_26_1 0
U3_26 0
D3_26_2 0
V3_26 0
D3_26_3 0
W3_26 0
D3_26_4 0
D3_27_0 0
T3_27 0
D3_27_1 0
U3_27 0
D3_27_2 0
V3_27 0
D3_27_3 0
W3_27 0
D3_27_4 0
D3_28_0 0
T3_28 0
D3_28_1 0
U3_28 0
D3_28_2 0
V3_28 0
D3_28_3 0
W3_28 0
D3_28_4 0
D3_29_0 0
T3_29 0
D3_29_1 0
U3_29 0
D3_29_2 0
V3_29 0
D3_29_3 0
W3_29 0
D3_29_4 0
D3_30_0 0
T3_30 0
D3_30_1 0
U3_30 0
D3_30_2 0
V3_30 0
D3_30_3 0
W3_30 0
D3_30_4 0
D3_31_0 0
T3_31 0
D3_31_1 0
U3_31 0
D3_31_2 0
V3_31 0
D3_31_3 0
W3_31 0
D3_31_4 0
D4_0_0 0
T4_0 0
D4_0_1 0
U4_0 0
D4_0_2 0
V4_0 0
D4_0_3 0
W4_0 0
D4_0_4 0
D4_1_0 0
T4_1 0
D4_1_1 0
U4_1 0
D4_1_2 0
V4_1 0
D4_1_3 0
W4_1 0
D4_1_4 0
D4_2_0 0
T4_2 0
D4_2_1 0
U4_2 0
D4_2_2 0
V4_2 0
D4_2_3 0
W4_2 0
D4_2_4 0
D4_3_0 0
T4_3 0
D4_3_1 0
U4_3 0
D4_3_2 0
V4_3 0
D4_3_3 0
W4_3 0
D4_3_4 0
D4_4_0 0
T4_4 0
D4_4_1 0
U4_4 0
D4_4_2 0
V4_4 0
D4_4_3 0
W4_4 0
D4_4_4 0
D4_5_0 0
T4_5 0
D4_5_1 0
U4_5 0
D4_5_2 0
V4_5 0
D4_5_3 0
W4_5 0
D4_5_4 0
D4_6_0 0
T4_6 0
D4_6_1 0
U4_6 0
D4_6_2 0
V4_6 0
D4_6_3 0
W4_6 0
D4_6_4 0
D4_7_0 0
T4_7 0
D4_7_1 0
U4_7 0
D4_7_2 0
V4_7 0
D4_7_3 0
W4_7 0
D4_7_4 0
D4_8_0 0
T4_8 0
D4_8_1 0
U4_8 0
D4_8_2 0
V4_8 0
D4_8_3 0
W4_8 0
D4_8_4 0
D4_9_0 0
T4_9 0
D4_9_1 0
U4_9 0
D4_9_2 0
V4_9 0
D4_9_3 0
W4_9 0
D4_9_4 0
D4_10_0 0
T4_10 0
D4_10_1 0
U4_10 0
D4_10_2 0
V4_10 0
D4_10_3 0
W4_10 0
D4_10_4 0
D4_11_0 0
T4_11 0
D4_11_1 0
U4_11 0
D4_11_2 0
V4_11 0
D4_11_3 0
W4_11 0
D4_11_4 0
D4_12_0 0
T4_12 0
D4_12_1 0
U4_12 0
D4_12_2 0
V4_12 0
D4_12_3 0
W4_12 0
D4_12_4 0
D4_13_0 0
T4_13 0
D4_13_1 0
U4_13 0
D4_13_2 0
V4_13 0
D4_13_3 0
W4_13 0
D4_13_4 0
D4_14_0 0
T4_14 0
D4_14_1 0
U4_14 0
D4_14_2 0
V4_14 0
D4_14_3 0
W4_14 0
D4_14_4 0
D4_15_0 0
T4_15 0
D4_15_1 0
U4_15 0
D4_15_2 0
V4_15 0
D4_15_3 0
W4_15 0
D4_15_4 0
D4_16_0 0
T4_16 0
D4_16_1 0
U4_16 0
D4_16_2 1
V4_16 1
D4_16_3 1
W4_16 0
D4_16_4 0
D4_17_0 0
T4_17 0
D4_17_1 0
U4_17 0
D4_17_2 0
V4_17 0
D4_17_3 0
W4_17 0
D4_17_4 0
D4_18_0 1
T4_18 1
D4_18_1 1
U4_18 1
D4_18_2 1
V4_18 0
D4_18_3 0
W4_18 0
D4_18_4 0
D4_19_0 0
T4_19 0
D4_19_1 1
U4_19 1
D4_19_2 1
V4_19 1
D4_19_3 1
W4_19 0
D4_19_4 0
D4_20_0 0
T4_20 0
D4_20_1 1
U4_20 1
D4_20_2 1
V4_20 0
D4_20_3 0
W4_20 0
D4_20_4 0
D4_21_0 0
T4_21 0
D4_21_1 0
U4_21 0
D4_21_2 0
V4_21 0
D4_21_3 0
W4_21 0
D4_21_4 0
D4_22_0 1
T4_22 1
D4_22_1 1
U4_22 0
D4_22_2 0
V4_22 0
D4_22_3 0
W4_22 0
D4_22_4 0
D4_23_0 1
T4_23 1
D4_23_1 1
U4_23 1
D4_23_2 1
V4_23 0
D4_23_3 0
W4_23 0
D4_23_4 0
D4_24_0 0
T4_24 0
D4_24_1 1
U4_24 1
D4_24_2 1
V4_24 1
D4_24_3 1
W4_24 1
D4_24_4 1
D4_25_0 1
T4_25 1
D4_25_1 1
U4_25 1
D4_25_2 1
V4_25 1
D4_25_3 1
W4_25 1
D4_25_4 1
D4_26_0 1
T4_26 1
D4_26_1 1
U4_26 1
D4_26_2 1
V4_26 1
D4_26_3 1
W4_26 1
D4_26_4 1
D4_27_0 1
T4_27 0
D4_27_1 1
U4_27 1
D4_27_2 1
V4_27 1
D4_27_3 1
W4_27 0
D4_27_4 0
D4_28_0 0
T4_28 0
D4_28_1 0
U4_28 0
D4_28_2 0
V4_28 0
D4_28_3 1
W4_28 1
D4_28_4 1
D4_29_0 1
T4_29 1
D4_29_1 1
U4_29 1
D4_29_2 1
V4_29 1
D4_29_3 1
W4_29 1
D4_29_4 1
D4_30_0 1
T4_30 1
D4_30_1 1
U4_30 1
D4_30_2 1
V4_30 1
D4_30_3 1
W4_30 0
D4_30_4 0
D4_31_0 1
T4_31 1
D4_31_1 1
U4_31 1
D4_31_2 1
V4_31 0
D4_31_3 0
W4_31 0
D4_31_4 0
D5_0_0 0
T5_0 0
D5_0_1 0
U5_0 0
D5_0_2 0
V5_0 0
D5_0_3 0
W5_0 0
D5_0_4 0
D5_1_0 0
T5_1 0
D5_1_1 0
U5_1 0
D5_1_2 1
V5_1 1
D5_1_3 1
W5_1 1
D5_1_4 1
D5_2_0 0
T5_2 0
D5_2_1 0
U5_2 0
D5_2_2 0
V5_2 0
D5_2_3 1
W5_2 1
D5_2_4 1
D5_3_0 0
T5_3 0
D5_3_1 0
U5_3 0
D5_3_2 0
V5_3 0
D5_3_3 0
W5_3 0
D5_3_4 0
D5_4_0 0
T5_4 0
D5_4_1 0
U5_4 0
D5_4_2 0
V5_4 0
D5_4_3 0
W5_4 0
D5_4_4 0
D5_5_0 0
T5_5 0
D5_5_1 1
U5_5 1
D5_5_2 1
V5_5 0
D5_5_3 0
W5_5 0
D5_5_4 0
D5_6_0 0
T5_6 0
D5_6_1 0
U5_6 0
D5_6_2 0
V5_6 0
D5_6_3 0
W5_6 0
D5_6_4 0
D5_7_0 0
T5_7 0
D5_7_1 0
U5_7 0
D5_7_2 0
V5_7 0
D5_7_3 0
W5_7 0
D5_7_4 0
D5_8_0 0
T5_8 0
D5_8_1 0
U5_8 0
D5_8_2 0
V5_8 0
D5_8_3 0
W5_8 0
D5_8_4 0
D5_9_0 1
T5_9 1
D5_9_1 1
U5_9 0
D5_9_2 0
V5_9 0
D5_9_3 0
W5_9 0
D5_9_4 0
D5_10_0 1
T5_10 1
D5_10_1 1
U5_10 1
D5_10_2 1
V5_10 1
D5_10_3 1
W5_10 1
D5_10_4 1
D5_11_0 0
T5_11 0
D5_11_1 0
U5_11 0
D5_11_2 0
V5_11 0
D5_11_3 0
W5_11 0
D5_11_4 0
D5_12_0 0
T5_12 0
D5_12_1 0
U5_12 0
D5_12_2 0
V5_12 0
D5_12_3 0
W5_12 0
D5_12_4 0
D5_13_0 1
T5_13 1
D5_13_1 1
U5_13 1
D5_13_2 1
V5_13 1
D5_13_3 1
W5_13 1
D5_13_4 1
D5_14_0 1
T5_14 1
D5_14_1 1
U5_14 1
D5_14_2 1
V5_14 1
D5_14_3 1
W5_14 0
D5_14_4 0
D5_15_0 0
T5_15 0
D5_15_1 0
U5_15 0
D5_15_2 0
V5_15 0
D5_15_3 0
W5_15 0
D5_15_4 0
D5_16_0 0
T5_16 0
D5_16_1 0
U5_16 0
D5_16_2 0
V5_16 0
D5_16_3 0
W5_16 0
D5_16_4 1
D5_17_0 0
T5_17 0
D5_17_1 0
U5_17 0
D5_17_2 0
V5_17 0
D5_17_3 0
W5_17 0
D5_17_4 1
D5_18_0 0
T5_18 0
D5_18_1 0
U5_18 0
D5_18_2 0
V5_18 0
D5_18_3 0
W5_18 0
D5_18_4 1
D5_19_0 0
T5_19 0
D5_19_1 0
U5_19 0
D5_19_2 0
V5_19 0
D5_19_3 0
W5_19 0
D5_19_4 0
D5_20_0 0
T5_20 0
D5_20_1 0
U5_20 0
D5_20_2 0
V5_20 0
D5_20_3 0
W5_20 0
D5_20_4 0
D5_21_0 0
T5_21 0
D5_21_1 0
U5_21 0
D5_21_2 0
V5_21 0
D5_21_3 0
W5_21 0
D5_21_4 0
D5_22_0 0
T5_22 0
D5_22_1 0
U5_22 0
D5_22_2 0
V5_22 0
D5_22_3 0
W5_22 0
D5_22_4 0
D5_23_0 0
T5_23 0
D5_23_1 0
U5_23 0
D5_23_2 0
V5_23 0
D5_23_3 0
W5_23 0
D5_23_4 0
D5_24_0 0
T5_24 0
D5_24_1 0
U5_24 0
D5_24_2 0
V5_24 0
D5_24_3 0
W5_24 0
D5_24_4 0
D5_25_0 0
T5_25 0
D5_25_1 0
U5_25 0
D5_25_2 0
V5_25 0
D5_25_3 0
W5_25 0
D5_25_4 0
D5_26_0 0
T5_26 0
D5_26_1 0
U5_26 0
D5_26_2 0
V5_26 0
D5_26_3 0
W5_26 0
D5_26_4 0
D5_27_0 0
T5_27 0
D5_27_1 0
U5_27 0
D5_27_2 0
V5_27 0
D5_27_3 0
W5_27 0
D5_27_4 0
D5_28_0 0
T5_28 0
D5_28_1 0
U5_28 0
D5_28_2 0
V5_28 0
D5_28_3 0
W5_28 0
D5_28_4 0
D5_29_0 0
T5_29 0
D5_29_1 0
U5_29 0
D5_29_2 0
V5_29 0
D5_29_3 0
W5_29 0
D5_29_4 0
D5_30_0 0
T5_30 0
D5_30_1 0
U5_30 0
D5_30_2 0
V5_30 0
D5_30_3 0
W5_30 0
D5_30_4 0
D5_31_0 0
T5_31 0
D5_31_1 0
U5_31 0
D5_31_2 0
V5_31 0
D5_31_3 0
W5_31 0
D5_31_4 0
D6_0_0 1
T6_0 1
D6_0_1 1
U6_0 1
D6_0_2 1
V6_0 1
D6_0_3 1
W6_0 1
D6_0_4 1
X7_0 1
D6_1_0 1
T6_1 1
D6_1_1 1
U6_1 1
D6_1_2 1
V6_1 1
D6_1_3 1
W6_1 1
D6_1_4 1
X7_1 1
D6_2_0 0
T6_2 0
D6_2_1 0
U6_2 0
D6_2_2 0
V6_2 0
D6_2_3 0
W6_2 0
D6_2_4 0
X7_2 0
D6_3_0 0
T6_3 0
D6_3_1 0
U6_3 0
D6_3_2 0
V6_3 0
D6_3_3 0
W6_3 0
D6_3_4 0
X7_3 0
D6_4_0 0
T6_4 0
D6_4_1 0
U6_4 0
D6_4_2 0
V6_4 0
D6_4_3 0
W6_4 0
D6_4_4 0
X7_4 0
D6_5_0 0
T6_5 0
D6_5_1 0
U6_5 0
D6_5_2 0
V6_5 0
D6_5_3 1
W6_5 1
D6_5_4 1
X7_5 1
D6_6_0 0
T6_6 0
D6_6_1 0
U6_6 0
D6_6_2 0
V6_6 0
D6_6_3 0
W6_6 0
D6_6_4 0
X7_6 0
D6_7_0 0
T6_7 0
D6_7_1 0
U6_7 0
D6_7_2 0
V6_7 0
D6_7_3 0
W6_7 0
D6_7_4 0
X7_7 0
D6_8_0 0
T6_8 0
D6_8_1 0
U6_8 0
D6_8_2 1
V6_8 1
D6_8_3 1
W6_8 1
D6_8_4 1
X7_24 1
D6_9_0 0
T6_9 0
D6_9_1 0
U6_9 0
D6_9_2 0
V6_9 0
D6_9_3 0
W6_9 0
D6_9_4 0
X7_25 0
D6_10_0 0
T6_10 0
D6_10_1 0
U6_10 0
D6_10_2 0
V6_10 0
D6_10_3 0
W6_10 0
D6_10_4 0
X7_26 0
D6_11_0 0
T6_11 0
D6_11_1 0
U6_11 0
D6_11_2 0
V6_11 0
D6_11_3 0
W6_11 0
D6_11_4 0
X7_27 0
D6_12_0 0
T6_12 0
D6_12_1 1
U6_12 1
D6_12_2 1
V6_12 1
D6_12_3 1
W6_12 1
D6_12_4 1
X7_28 1
D6_13_0 0
T6_13 0
D6_13_1 0
U6_13 0
D6_13_2 0
V6_13 0
D6_13_3 0
W6_13 0
D6_13_4 0
X7_29 0
D6_14_0 0
T6_14 0
D6_14_1 0
U6_14 0
D6_14_2 0
V6_14 0
D6_14_3 0
W6_14 0
D6_14_4 0
X7_30 0
D6_15_0 0
T6_15 0
D6_15_1 0
U6_15 0
D6_15_2 0
V6_15 0
D6_15_3 0
W6_15 0
D6_15_4 0
X7_31 0
D6_16_0 0
T6_16 0
D6_16_1 0
U6_16 0
D6_16_2 0
V6_16 0
D6_16_3 0
W6_16 0
D6_16_4 0
X7_16 0
D6_17_0 0
T6_17 0
D6_17_1 0
U6_17 0
D6_17_2 0
V6_17 0
D6_17_3 0
W6_17 0
D6_17_4 0
X7_17 0
D6_18_0 1
T6_18 1
D6_18_1 1
U6_18 1
D6_18_2 1
V6_18 1
D6_18_3 1
W6_18 1
D6_18_4 1
X7_18 1
D6_19_0 0
T6_19 0
D6_19_1 0
U6_19 0
D6_19_2 0
V6_19 0
D6_19_3 1
W6_19 1
D6_19_4 1
X7_19 1
D6_20_0 0
T6_20 0
D6_20_1 0
U6_20 0
D6_20_2 0
V6_20 0
D6_20_3 0
W6_20 0
D6_20_4 0
X7_20 0
D6_21_0 0
T6_21 0
D6_21_1 0
U6_21 0
D6_21_2 0
V6_21 0
D6_21_3 0
W6_21 0
D6_21_4 0
X7_21 0
D6_22_0 0
T6_22 0
D6_22_1 0
U6_22 0
D6_22_2 0
V6_22 0
D6_22_3 0
W6_22 0
D6_22_4 0
X7_22 0
D6_23_0 0
T6_23 0
D6_23_1 0
U6_23 0
D6_23_2 1
V6_23 1
D6_23_3 1
W6_23 1
D6_23_4 1
X7_23 1
D6_24_0 0
T6_24 0
D6_24_1 0
U6_24 0
D6_24_2 0
V6_24 0
D6_24_3 0
W6_24 0
D6_24_4 1
X7_8 1
D6_25_0 0
T6_25 0
D6_25_1 0
U6_25 0
D6_25_2 0
V6_25 0
D6_25_3 0
W6_25 0
D6_25_4 1
X7_9 1
D6_26_0 0
T6_26 0
D6_26_1 0
U6_26 0
D6_26_2 0
V6_26 0
D6_26_3 0
W6_26 0
D6_26_4 1
X7_10 1
D6_27_0 0
T6_27 0
D6_27_1 1
U6_27 1
D6_27_2 1
V6_27 1
D6_27_3 1
W6_27 1
D6_27_4 1
X7_11 1
D6_28_0 0
T6_28 0
D6_28_1 0
U6_28 0
D6_28_2 0
V6_28 0
D6_28_3 0
W6_28 0
D6_28_4 1
X7_12 1
D6_29_0 0
T6_29 0
D6_29_1 0
U6_29 0
D6_29_2 0
V6_29 0
D6_29_3 0
W6_29 0
D6_29_4 1
X7_13 1
D6_30_0 1
T6_30 1
D6_30_1 1
U6_30 1
D6_30_2 1
V6_30 1
D6_30_3 1
W6_30 1
D6_30_4 1
X7_14 1
D6_31_0 0
T6_31 0
D6_31_1 0
U6_31 0
D6_31_2 0
V6_31 0
D6_31_3 0
W6_31 0
D6_31_4 0
X7_15 0
